59
150
120	3
119	2
116	2
115	2
114	2
112	2
111	2
109	1
108	1
107	4
106	2
105	1
104	1
101	2
97	1
96	1
95	1
92	3
89	1
88	2
87	1
85	1
84	3
82	2
81	2
80	3
78	1
77	1
76	2
74	1
73	3
70	1
68	1
67	1
66	1
65	1
64	1
63	1
61	3
60	1
56	2
52	2
51	1
50	1
49	1
48	1
47	2
46	1
44	1
43	1
40	2
39	4
38	2
37	2
36	1
35	3
34	1
33	2
30	3
